\ENCODING=ISO-8859-1
\Problem name: IloCplex

Minimize
 obj1: Y_1 + Y_2 + Y_3 + Y_4 + Y_5 + Y_6 + Y_7 + Y_8 + Y_9 + Y_10 + Y_11 + Y_12
Subject To
 c1:  Y_1 + Y_2 + Y_4 + Y_5 + Y_7 + Y_8 + Y_10 - X_1 - X_3 >= 0
 c2:  - X_11 - X_15 - X_19 >= 0
 c3:  Y_6 + 6 Y_9 + 6 Y_11 + 6 Y_12 - X_5 - X_8 - X_12 - X_16 - X_20 - X_24
      >= 0
 c4:  Y_2 + 5 Y_3 + 2 Y_4 + 2 Y_5 - X_4 - X_6 - X_9 - X_13 - X_17 - X_21 - X_25
      - X_27 >= 0
 c5:  Y_1 + 3 Y_6 + Y_7 + Y_8 - X_2 - X_7 - X_10 - X_14 - X_18 - X_22 - X_23
      - X_26 - X_28 >= 0
 c6:  2 X_1 + X_3 + 2 X_23 >= 3
 c7:  X_3 + 4 X_11 + 4 X_12 + 4 X_13 + 3 X_2 + 4 X_14 >= 4
 c8:  6 X_15 + 6 X_19 + 6 X_16 + 6 X_20 + 4 X_24 + 4 X_4 + 6 X_17 + 6 X_21
      + 4 X_25 + 6 X_18 + 6 X_22 + 4 X_26 >= 4
 c9:  2 X_3 + 5 X_5 + 5 X_8 + 2 X_24 + X_4 + 5 X_6 + 5 X_9 + 2 X_25 + 5 X_27
      + 5 X_7 + 5 X_10 + 2 X_26 + 5 X_28 >= 3
 c10: 3 X_1 + 3 X_2 >= 6
End
